row=10;
column=10;
Board=[|3,3,0,0,0,0,4,5,0,0|0,0,3,2,0,3,0,0,0,0|0,0,0,4,1,0,0,0,0,0|0,0,0,0,1,0,3,0,0,0|0,3,3,0,0,3,2,1,3,0|0,0,0,0,0,2,0,0,0,0|0,0,2,0,1,2,0,0,0,0|0,0,0,0,0,0,0,0,0,0|0,2,0,0,0,0,0,0,0,0|2,0,0,0,0,0,1,1,1,0|];
right = [1,1,0,1,2,4,1,1,0,0];
bottom = [0,0,0,2,3,0,2,2,1,1];
